%%%mzn-stat: initTime=0.018703298
%%%mzn-stat: objective=191
%%%mzn-stat: nodes=1201
%%%mzn-stat: restarts=0
%%%mzn-stat: peakDepth=744
%%%mzn-stat: solveTime=0.116630102
%%%mzn-stat: variables=1797
%%%mzn-stat: propagators=1430
%%%mzn-stat: failures=201
%%%mzn-stat: propagations=135332
%%%mzn-stat: nogoods=201
%%%mzn-stat: AverageConflictSize=2.9303482587064678
%%%mzn-stat: NumUnitNogoodsLearned=190
%%%mzn-stat: AverageLearnedNogoodLength=4.706467661691542
%%%mzn-stat: AverageBacktrackAmount=0
%%%mzn-stat: AverageLbd=2.2587064676616917
%%%mzn-stat-end
maxleg = 191;
succ = array1d(1..100,[63, 56, 12, 65, 9, 83, 20, 4, 57, 35, 17, 74, 58, 29, 2, 77, 93, 86, 34, 87, 75, 26, 59, 88, 94, 84, 45, 80, 5, 19, 43, 37, 30, 69, 22, 1, 46, 78, 28, 82, 71, 60, 21, 67, 23, 54, 24, 16, 36, 53, 91, 96, 39, 61, 76, 13, 92, 72, 85, 50, 51, 11, 62, 68, 38, 27, 7, 10, 90, 55, 3, 100, 40, 73, 25, 49, 81, 99, 6, 14, 79, 70, 89, 41, 98, 33, 66, 52, 32, 31, 42, 18, 15, 8, 64, 44, 47, 95, 97, 48]);
% time elapsed: 9.33 s
----------
==========
% time elapsed: 9.33 s
%%%mzn-stat: initTime=0.018703298
%%%mzn-stat: objective=191
%%%mzn-stat: nodes=1201
%%%mzn-stat: restarts=0
%%%mzn-stat: peakDepth=744
%%%mzn-stat: solveTime=0.116633984
%%%mzn-stat: variables=1797
%%%mzn-stat: propagators=1430
%%%mzn-stat: failures=201
%%%mzn-stat: propagations=135332
%%%mzn-stat: nogoods=201
%%%mzn-stat: AverageConflictSize=2.9303482587064678
%%%mzn-stat: NumUnitNogoodsLearned=190
%%%mzn-stat: AverageLearnedNogoodLength=4.706467661691542
%%%mzn-stat: AverageBacktrackAmount=0
%%%mzn-stat: AverageLbd=2.2587064676616917
%%%mzn-stat-end
